r = [
0,3,76,46,43,64,26,14,46,16,32,0
];
p = [
0,23,29,19,3,1,14,27,13,29,28,0
];
e = [
0,19,19,7,8,11,4,6,2,8,14,0
];
d = [
0,26,161,155,150,131,111,139,158,150,60,187
];
d_bar = [
0,47,187,172,153,132,124,163,170,176,85,187
];
w = [
0,0.904761905,0.730769231,0.411764706,2.666666667,11,0.307692308,0.25,0.166666667,0.307692308,0.56,0
];
